NAME : OCPPP0717-kernel50-quad.gtsp.103800.tour
COMMENT : Length = 103800
COMMENT : Found by GLKH [Keld Helsgaun] Thu Aug  4 14:15:03 2022
TYPE : TOUR
DIMENSION : 25
TOUR_SECTION
1
28
3
32
6
30
7
35
10
34
11
40
14
37
15
44
18
41
19
47
22
45
23
49
26
-1
EOF
